p cnf 91 377
20 -38 41 53 -54 -70 71 0
-5 -6 -35 37 62 82 0
20 -38 53 -54 -70 71 0
20 41 53 -54 -70 71 0
1 2 24 -32 59 0
1 2 -32 59 -62 0
1 42 45 60 83 0
3 4 23 -51 -68 0
10 11 12 26 34 0
12 13 -14 58 79 0
-61 -63 78 82 84 0
1 -42 46 60 -87 0
2 3 24 -32 59 0
12 57 -73 78 79 0
13 -31 58 -78 -79 0
-14 -15 58 76 80 0
20 21 22 41 -53 0
1 10 21 88 0
-1 8 83 -88 0
-1 -10 -83 -88 0
-2 -5 -65 82 0
3 4 16 51 0
3 19 -50 51 0
3 23 56 59 0
-3 -16 -19 -89 0
-4 -61 -78 -84 0
7 8 9 -47 0
7 9 40 64 0
7 9 -47 -48 0
7 9 -47 64 0
-7 -8 -60 -83 0
-8 -18 -39 -55 0
9 40 46 64 0
10 11 26 34 0
10 20 -69 -77 0
10 21 -69 88 0
10 -27 -34 -57 0
10 69 -77 88 0
12 -23 -27 -28 0
13 49 -68 85 0
13 49 -68 -86 0
13 49 -86 91 0
-13 -50 68 90 0
-13 68 -85 90 0
-15 29 -31 58 0
-15 -30 57 -73 0
17 19 39 40 0
-18 -19 -40 -64 0
19 38 54 64 0
19 74 -75 -76 0
21 -69 70 -72 0
-21 22 -69 -77 0
-22 -23 -53 -88 0
23 -50 68 -91 0
25 -35 36 74 0
29 30 57 -73 0
50 66 86 -89 0
66 67 -86 90 0
1 2 -32 -62 0
1 -42 -60 -87 0
2 3 -32 56 0
-2 -5 74 82 0
-3 -16 -23 -89 0
-3 -19 51 -89 0
-6 32 61 82 0
-8 42 46 -87 0
-12 57 78 -79 0
-14 -31 -76 79 0
19 -51 -68 -91 0
-21 69 70 -72 0
-23 36 37 82 0
-23 67 -86 91 0
26 -27 -31 -34 0
-29 30 57 -73 0
38 -54 -70 72 0
-41 -53 70 -72 0
49 67 -68 85 0
68 -85 90 -91 0
1 2 24 0
1 2 65 0
1 10 83 0
1 -42 83 0
1 59 -62 0
-1 -13 28 0
-1 -24 -56 0
-1 -29 -30 0
3 16 24 0
-3 16 49 0
-3 16 50 0
-3 -23 91 0
-3 49 -50 0
-3 49 91 0
4 -16 68 0
4 -61 -82 0
5 63 -74 0
-6 -36 -63 0
7 40 42 0
7 -40 -43 0
-7 -45 -83 0
8 9 -47 0
8 9 55 0
-8 -19 -43 0
-8 41 48 0
9 45 55 0
-9 -40 43 0
10 -34 -57 0
-10 -24 26 0
-10 -26 28 0
-10 27 -34 0
11 -28 -31 0
11 57 -76 0
-11 31 80 0
-12 57 -78 0
13 -51 91 0
-13 -49 -50 0
17 18 69 0
17 -22 -71 0
17 44 -71 0
-17 22 -77 0
-17 -39 -40 0
-17 44 77 0
18 39 64 0
-18 -23 -38 0
19 -30 -33 0
19 60 69 0
19 -65 75 0
-19 25 -27 0
-19 36 -79 0
-19 -51 67 0
-19 52 -84 0
-19 67 85 0
-19 73 80 0
-19 81 85 0
22 -41 53 0
23 27 32 0
23 29 -36 0
23 -50 -91 0
23 -65 75 0
23 -75 76 0
23 -75 -76 0
-23 25 65 0
-23 30 -56 0
-23 79 -84 0
-23 -79 84 0
24 25 -33 0
-24 -25 -33 0
25 27 34 0
25 32 33 0
-25 -76 -80 0
-28 34 -57 0
30 33 36 0
-30 -31 -73 0
32 -56 -61 0
-32 -33 56 0
-32 -56 61 0
-33 58 -80 0
-35 56 59 0
-35 -61 65 0
-35 -61 -74 0
36 -37 63 0
40 43 87 0
-40 -55 77 0
-40 -55 87 0
-42 -69 83 0
46 47 -54 0
-46 -47 64 0
-46 -47 -64 0
-48 55 -87 0
49 67 85 0
-49 -51 -91 0
50 -66 89 0
-50 -66 90 0
-50 90 -91 0
-51 68 -89 0
52 62 78 0
52 82 -84 0
54 64 72 0
66 67 -90 0
-66 85 -89 0
-66 86 -90 0
-69 -72 88 0
70 77 -88 0
70 83 -88 0
74 75 -82 0
1 21 0
1 24 0
1 -49 0
1 50 0
1 83 0
1 87 0
1 88 0
-1 -2 0
-1 -3 0
-1 8 0
-1 30 0
-1 62 0
-1 -75 0
2 3 0
2 6 0
2 32 0
2 45 0
2 56 0
2 -74 0
-2 35 0
-2 61 0
3 24 0
3 -25 0
3 27 0
3 -32 0
3 50 0
3 -50 0
3 59 0
3 -62 0
3 -67 0
-3 -51 0
-3 -68 0
4 25 0
4 -50 0
4 -52 0
4 61 0
4 -61 0
4 63 0
4 68 0
4 74 0
4 78 0
4 -78 0
4 82 0
-4 -6 0
-4 78 0
-4 -84 0
5 -52 0
5 -62 0
5 78 0
5 -78 0
5 -82 0
-5 52 0
-5 -63 0
-5 84 0
6 35 0
6 -36 0
6 -37 0
6 -62 0
6 -82 0
-6 36 0
7 8 0
7 45 0
7 47 0
-7 60 0
-7 70 0
-7 -70 0
-7 87 0
8 -45 0
8 -46 0
8 55 0
8 -60 0
8 -70 0
-8 -10 0
-8 45 0
-8 -46 0
-8 -71 0
-8 87 0
-8 88 0
-8 -88 0
9 45 0
9 46 0
-9 -19 0
-9 -45 0
-9 -46 0
-9 48 0
10 12 0
10 -14 0
10 -27 0
10 42 0
10 -60 0
10 -70 0
10 83 0
10 89 0
-10 -11 0
-10 -12 0
-10 15 0
-10 -70 0
11 15 0
11 76 0
-11 -14 0
-11 29 0
-11 -57 0
-11 -76 0
12 28 0
12 -61 0
12 80 0
-12 -14 0
-12 -15 0
-12 31 0
-12 -57 0
-12 -58 0
-12 79 0
-12 -83 0
13 -16 0
13 -31 0
13 85 0
13 -90 0
13 91 0
-13 41 0
-13 -49 0
-13 -85 0
-13 86 0
14 31 0
14 -57 0
14 -58 0
14 73 0
14 -78 0
14 79 0
14 -79 0
-14 73 0
-14 78 0
15 -29 0
15 31 0
15 -57 0
15 -58 0
-15 -73 0
16 -67 0
16 69 0
-16 -49 0
-16 67 0
-16 -85 0
17 23 0
17 -77 0
-17 18 0
-17 -53 0
-17 -72 0
18 41 0
18 42 0
18 47 0
18 54 0
-18 -47 0
-18 -48 0
-18 -53 0
-18 81 0
-18 83 0
19 21 0
19 -36 0
19 47 0
19 -75 0
19 -80 0
-19 -26 0
-19 -34 0
-19 -38 0
-19 -41 0
-19 -48 0
-19 -60 0
-19 65 0
-19 69 0
-19 -69 0
-19 79 0
-19 81 0
-19 84 0
-19 -85 0
-19 86 0
-19 -86 0
20 -72 0
-20 -21 0
-20 -22 0
-20 69 0
-20 77 0
21 23 0
21 -72 0
21 -88 0
-21 41 0
22 -44 0
22 47 0
22 54 0
22 69 0
22 71 0
-22 41 0
-22 -41 0
-22 55 0
-22 -71 0
